0 9137.12
1 9137.12
2 9051.19
3 8960.14
4 8960.14
5 8883.75
6 8871.74
7 8805.13
8 8770.82
9 8630.56
10 8621.60
11 8621.60
12 8621.60
13 8621.60
14 8621.60
15 8566.50
16 8494.56
17 8494.56
18 8494.56
19 8494.56
20 8494.56
21 8364.83
22 8364.83
23 8364.83
24 8364.83
25 8341.91
26 8341.91
27 8341.91
28 8341.91
29 8252.72
30 8252.72
31 8223.71
32 8188.50
33 8188.50
34 8150.03
35 8107.23
36 8107.23
37 8062.91
38 7992.40
39 7950.99
40 7950.99
41 7950.99
42 7950.99
43 7950.99
44 7950.99
45 7950.99
46 7950.99
47 7950.99
48 7950.99
49 7923.41
50 7923.41
51 7923.41
52 7923.41
53 7923.41
54 7840.02
55 7840.02
56 7840.02
57 7789.49
58 7789.49
59 7783.88
60 7783.88
61 7750.12
62 7750.12
63 7750.12
64 7750.12
65 7750.12
66 7750.12
67 7744.40
68 7744.40
69 7738.76
70 7738.76
71 7738.76
72 7738.76
73 7730.32
74 7730.32
75 7730.32
76 7730.32
77 7730.32
78 7684.13
79 7684.13
80 7684.13
81 7666.76
82 7666.76
83 7666.76
84 7664.79
85 7664.79
86 7664.79
87 7664.79
88 7664.79
89 7664.79
90 7664.79
91 7664.79
92 7622.45
93 7622.45
94 7622.45
95 7622.45
96 7580.29
97 7580.29
98 7580.29
99 7522.27
100 7522.27
101 7522.27
102 7522.27
103 7522.27
104 7522.27
105 7522.27
106 7517.58
107 7517.58
108 7487.08
109 7487.08
110 7487.08
111 7487.08
112 7487.08
113 7463.57
114 7463.57
115 7463.57
116 7463.57
117 7463.57
118 7463.57
119 7463.57
120 7463.57
121 7463.57
122 7463.57
123 7462.14
124 7462.14
125 7462.14
126 7462.14
127 7462.14
128 7462.14
129 7451.59
130 7451.59
131 7451.59
132 7451.59
133 7451.59
134 7451.59
135 7451.59
136 7451.59
137 7441.26
138 7429.23
139 7429.23
140 7429.23
141 7429.23
142 7429.23
143 7429.23
144 7429.23
145 7429.23
146 7429.23
147 7429.23
148 7429.23
149 7429.23
150 7401.16
151 7401.16
152 7401.16
153 7401.16
154 7401.16
155 7401.16
156 7401.16
157 7401.16
158 7401.16
159 7401.16
160 7401.16
161 7401.16
162 7371.18
163 7371.18
164 7371.18
165 7371.18
166 7371.18
167 7371.18
168 7371.18
169 7352.68
170 7352.68
171 7352.68
172 7352.68
173 7352.68
174 7352.68
175 7352.68
176 7352.68
177 7352.68
178 7352.68
179 7352.68
180 7312.23
181 7311.80
182 7311.80
183 7311.80
184 7311.80
185 7311.80
186 7311.80
187 7311.80
188 7311.80
189 7311.80
190 7311.80
191 7311.80
192 7311.80
193 7311.80
194 7311.80
195 7311.80
196 7284.74
197 7284.74
198 7284.74
199 7284.74
200 7284.74
201 7272.86
202 7272.86
203 7272.86
204 7272.86
205 7272.86
206 7254.94
207 7254.94
208 7254.94
209 7254.94
210 7254.94
211 7254.94
212 7254.94
213 7254.94
214 7175.42
215 7175.42
216 7175.42
217 7175.42
218 7175.42
219 7175.42
220 7175.42
221 7175.42
222 7175.42
223 7175.42
224 7175.42
225 7175.42
226 7175.42
227 7175.42
228 7175.42
229 7175.42
230 7175.42
231 7175.42
232 7175.42
233 7175.42
234 7175.42
235 7175.42
236 7175.42
237 7175.42
238 7175.42
239 7167.23
240 7167.23
241 7167.23
242 7167.23
243 7167.23
244 7167.23
245 7167.23
246 7167.23
247 7167.23
248 7167.23
249 7163.57
250 7163.57
251 7163.57
252 7163.57
253 7163.57
254 7163.57
255 7163.57
256 7163.57
257 7125.20
258 7125.20
259 7125.20
260 7125.20
261 7125.20
262 7125.20
263 7125.20
264 7125.20
265 7125.20
266 7125.20
267 7125.18
268 7117.43
269 7117.43
270 7117.43
271 7117.43
272 7117.43
273 7117.43
274 7117.43
275 7117.43
276 7117.43
277 7101.89
278 7092.02
279 7092.02
280 7092.02
281 7089.49
282 7089.49
283 7089.49
284 7052.88
285 7018.17
286 7018.17
287 7018.17
288 7018.17
289 7018.17
290 7018.17
291 7018.17
292 7018.17
293 7018.17
294 7018.17
295 7018.17
296 7018.17
297 7018.17
298 7018.17
299 7014.00
300 7014.00
301 7014.00
302 7014.00
303 7014.00
304 7014.00
305 7014.00
306 7014.00
307 7014.00
308 7014.00
309 7014.00
310 6974.53
311 6974.53
312 6974.53
313 6974.53
314 6951.18
315 6951.18
316 6934.85
317 6934.85
318 6934.85
319 6934.85
320 6934.85
321 6934.85
322 6934.85
323 6934.85
324 6934.85
325 6934.85
326 6934.85
327 6934.85
328 6934.85
329 6934.85
330 6934.85
331 6934.85
332 6934.85
333 6934.85
334 6934.85
335 6934.85
336 6934.85
337 6934.85
338 6901.45
339 6901.45
340 6901.45
341 6901.45
342 6901.45
343 6901.45
344 6901.45
345 6901.45
346 6894.64
347 6894.64
348 6894.64
349 6894.64
350 6894.64
351 6894.64
352 6894.64
353 6894.64
354 6894.64
355 6894.64
356 6894.64
357 6894.64
358 6894.64
359 6894.64
360 6894.64
361 6894.64
362 6894.64
363 6894.64
364 6894.64
365 6878.43
366 6878.43
367 6878.43
368 6838.74
369 6838.74
370 6838.74
371 6838.74
372 6838.74
373 6838.74
374 6822.19
375 6822.19
376 6822.19
377 6822.19
378 6822.19
379 6822.19
380 6822.19
381 6822.19
382 6822.19
383 6822.19
384 6822.19
385 6822.19
386 6822.19
387 6822.19
388 6735.31
389 6735.31
390 6735.31
391 6735.31
392 6735.31
393 6735.31
394 6735.31
395 6735.31
396 6735.31
397 6735.31
398 6735.31
399 6735.31
400 6735.31
401 6735.31
402 6735.31
403 6735.31
404 6735.31
405 6735.31
406 6735.31
407 6279.39
408 6279.39
409 6258.40
410 6258.40
411 6258.40
412 6258.40
413 5964.70
414 5964.70
415 5538.33
416 5538.33
417 5538.33
418 5538.33
419 5538.33
420 5538.33
421 5538.33
422 5538.33
423 5538.33
424 5538.33
425 5538.33
426 5538.33
427 5538.33
428 5538.33
429 5538.33
430 5538.33
431 5538.33
432 5538.33
433 5538.33
434 5538.33
435 5538.33
436 5538.33
437 5538.33
438 5538.33
439 5538.33
440 5538.33
441 5538.33
442 5475.81
443 5475.81
444 5475.81
445 5475.81
446 5475.81
447 5475.81
448 5475.81
449 5475.81
450 5475.81
451 5475.81
452 5475.81
453 5475.81
454 5475.81
455 5475.81
456 5475.81
457 5475.81
458 5475.81
459 5475.81
460 5475.81
461 5475.81
462 5475.81
463 5475.81
464 5475.81
465 5475.81
466 5475.81
467 5475.81
468 5475.81
469 5475.81
470 5475.81
471 5475.81
472 5475.81
473 5475.81
474 5475.81
475 5475.81
476 5449.21
477 5449.21
478 5449.21
479 5449.21
480 5449.21
481 5449.21
482 5433.32
483 5433.32
484 5433.32
485 5433.32
486 5433.32
487 5433.32
488 5433.32
489 5433.32
490 5433.32
491 5433.32
492 5433.32
493 5433.32
494 5433.32
495 5433.32
496 5433.32
497 5433.32
498 5433.32
499 5433.32
500 5433.32
501 5433.32
502 5433.32
503 5433.32
504 5433.32
505 5433.32
506 5433.32
507 5433.32
508 5433.32
509 5433.32
510 5433.32
511 5433.32
512 5433.32
513 5433.32
514 5409.93
515 5409.93
516 5409.93
517 5409.93
518 5409.93
519 5409.93
520 5409.93
521 5409.93
522 5409.93
523 5409.93
524 5409.93
525 5409.93
526 5409.93
527 5409.93
528 5409.93
529 5409.93
530 5409.93
531 5409.93
532 5409.93
533 5409.93
534 5409.93
535 5409.93
536 5409.93
537 5409.93
538 5409.93
539 5409.93
540 5409.93
541 5409.93
542 5409.93
543 5409.93
544 5409.93
545 5409.93
546 5409.93
547 5409.93
548 5409.93
549 5409.93
550 5409.93
551 5400.49
552 5400.49
553 5400.49
554 5400.49
555 5400.49
556 5400.49
557 5400.49
558 5400.49
559 5400.49
560 5400.49
561 5400.49
562 5400.49
563 5400.49
564 5400.49
565 5400.49
566 5400.49
567 5400.49
568 5380.97
569 5380.97
570 5380.97
571 5380.97
572 5380.97
573 5380.97
574 5380.97
575 5380.97
576 5380.97
577 5380.97
578 5380.97
579 5380.97
580 5380.97
581 5380.97
582 5380.97
583 5369.41
584 5369.41
585 5369.41
586 5369.41
587 5369.41
588 5369.41
589 5369.41
590 5369.41
591 5369.41
592 5369.41
593 5369.41
594 5369.41
595 5369.41
596 5369.41
597 5369.41
598 5369.41
599 5369.41
600 5369.41
601 5369.41
602 5369.41
603 5369.41
604 5369.41
605 5369.41
606 5369.41
607 5369.41
608 5369.41
609 5369.41
610 5369.41
611 5369.41
612 5369.41
613 5369.41
614 5369.41
615 5369.41
616 5369.41
617 5369.41
618 5369.41
619 5369.41
620 5369.41
621 5369.41
622 5369.41
623 5369.41
624 5369.41
625 5369.41
626 5369.41
627 5369.41
628 5369.41
629 5369.41
630 5369.41
631 5369.41
632 5369.41
633 5369.41
634 5369.41
635 5369.41
636 5369.41
637 5369.41
638 5369.41
639 5369.41
640 5369.41
641 5369.41
642 5369.41
643 5369.41
644 5369.41
645 5369.41
646 5369.41
647 5369.41
648 5369.41
649 5369.41
650 5369.41
651 5369.41
652 5369.41
653 5369.41
654 5369.41
655 5369.41
656 5369.41
657 5369.41
658 5369.41
659 5369.41
660 5369.41
661 5369.41
662 5369.41
663 5369.41
664 5369.41
665 5369.41
666 5369.41
667 5369.41
668 5369.41
669 5369.41
670 5369.41
671 5369.41
672 5369.41
673 5369.41
674 5369.41
675 5369.41
676 5369.41
677 5369.41
678 5369.41
679 5369.41
680 5369.41
681 5369.41
682 5369.41
683 5369.41
684 5369.41
685 5369.41
686 5369.41
687 5369.41
688 5369.41
689 5369.41
690 5369.41
691 5369.41
692 5369.41
693 5369.41
694 5369.41
695 5369.41
696 5369.41
697 5369.41
698 5369.41
699 5369.41
700 5369.41
701 5369.41
702 5369.41
703 5363.22
704 5363.22
705 5363.22
706 5363.22
707 5363.22
708 5363.22
709 5363.22
710 5363.22
711 5363.22
712 5363.22
713 5363.22
714 5363.22
715 5363.22
716 5363.22
717 5363.22
718 5363.22
719 5363.22
720 5363.22
721 5363.22
722 5363.22
723 5363.22
724 5363.22
725 5363.22
726 5363.22
727 5363.22
728 5363.22
729 5363.22
730 5363.22
731 5363.22
732 5363.22
733 5363.22
734 5363.22
735 5363.22
736 5363.22
737 5363.22
738 5363.22
739 5363.22
740 5363.22
741 5363.22
742 5363.22
743 5363.22
744 5363.22
745 5363.22
746 5363.22
747 5363.22
748 5363.22
749 5363.22
750 5363.22
751 5363.22
752 5363.22
753 5363.22
754 5363.22
755 5363.22
756 5363.22
757 5363.22
758 5363.22
759 5363.22
760 5363.22
761 5363.22
762 5363.22
763 5363.22
764 5363.22
765 5363.22
766 5363.22
767 5363.22
768 5363.22
769 5363.22
770 5363.22
771 5363.22
772 5363.22
773 5363.22
774 5363.22
775 5363.22
776 5363.22
777 5363.22
778 5363.22
779 5363.22
780 5363.22
781 5363.22
782 5363.22
783 5363.22
784 5363.22
785 5363.22
786 5363.22
787 5363.22
788 5363.22
789 5363.22
790 5363.22
791 5363.22
792 5363.22
793 5363.22
794 5363.22
795 5363.22
796 5363.22
797 5363.22
798 5363.22
799 5363.22
800 5363.22
801 5363.22
802 5363.22
803 5363.22
804 5363.22
805 5363.22
806 5363.22
807 5363.22
808 5363.22
809 5363.22
810 5363.22
811 5363.22
812 5363.22
813 5363.22
814 5363.22
815 5363.22
816 5363.22
817 5363.22
818 5363.22
819 5363.22
820 5363.22
821 5363.22
822 5363.22
823 5363.22
824 5363.22
825 5363.22
826 5363.22
827 5363.22
828 5363.22
829 5363.22
830 5363.22
831 5363.22
832 5363.22
833 5363.22
834 5363.22
835 5363.22
836 5363.22
837 5363.22
838 5363.22
839 5363.22
840 5363.22
841 5363.22
842 5363.19
843 5363.19
844 5363.19
845 5363.19
846 5363.19
847 5363.19
848 5363.19
849 5363.19
850 5363.19
851 5363.19
852 5363.19
853 5363.19
854 5363.19
855 5363.19
856 5363.19
857 5363.19
858 5363.19
859 5363.19
860 5363.19
861 5363.19
862 5363.19
863 5363.19
864 5363.19
865 5363.19
866 5363.19
867 5363.19
868 5363.19
869 5363.19
870 5363.19
871 5363.19
872 5363.19
873 5363.19
874 5363.19
875 5363.19
876 5363.19
877 5363.19
878 5363.19
879 5363.19
880 5363.19
881 5363.19
882 5363.19
883 5363.19
884 5363.19
885 5363.19
886 5363.19
887 5363.19
888 5363.19
889 5363.19
890 5363.19
891 5363.19
892 5363.19
893 5363.19
894 5363.19
895 5363.19
896 5363.19
897 5363.19
898 5363.19
899 5363.19
900 5363.19
901 5363.19
902 5363.19
903 5363.19
904 5363.19
905 5363.19
906 5363.19
907 5363.19
908 5363.19
909 5363.19
910 5363.19
911 5363.19
912 5363.19
913 5363.19
914 5363.19
915 5363.19
916 5363.19
917 5363.19
918 5363.19
919 5363.19
920 5363.19
921 5363.19
922 5363.19
923 5363.19
924 5363.19
925 5363.19
926 5363.19
927 5363.19
928 5363.19
929 5363.19
930 5363.19
931 5363.19
932 5363.19
933 5363.19
934 5363.19
935 5363.19
936 5363.19
937 5363.19
938 5363.19
939 5363.19
940 5363.19
941 5363.19
942 5363.19
943 5363.19
944 5363.19
945 5363.19
946 5363.19
947 5363.19
948 5363.19
949 5363.19
950 5363.19
951 5363.19
952 5363.19
953 5363.19
954 5363.19
955 5363.19
956 5363.19
957 5363.19
958 5363.19
959 5363.19
960 5363.19
961 5363.19
962 5363.19
963 5363.19
964 5363.19
965 5363.19
966 5363.19
967 5363.19
968 5363.19
969 5363.19
970 5363.19
971 5363.19
972 5363.19
973 5363.19
974 5363.19
975 5363.19
976 5363.19
977 5363.19
978 5363.19
979 5363.19
980 5363.19
981 5363.19
982 5363.19
983 5363.19
984 5363.19
985 5363.19
986 5363.19
987 5363.19
988 5363.19
989 5363.19
990 5363.19
991 5363.19
992 5363.19
993 5363.19
994 5363.19
995 5363.19
996 5363.19
997 5363.19
998 5363.19
999 5363.19
8 12 5 1 0 0 